(set-logic QF_LIA)
(declare-fun x0 () Int)
(declare-fun x1 () Int)
(declare-fun x2 () Int)
(declare-fun x3 () Int)
(declare-fun x4 () Int)
(declare-fun x5 () Int)
(declare-fun x6 () Int)
(declare-fun x7 () Int)
(declare-fun x8 () Int)
(declare-fun x9 () Int)
(declare-fun A0 () Bool)
(declare-fun A1 () Bool)
(declare-fun A2 () Bool)
(declare-fun A3 () Bool)
(declare-fun A4 () Bool)
(declare-fun A5 () Bool)
(declare-fun A6 () Bool)
(declare-fun A7 () Bool)
(declare-fun A8 () Bool)
(declare-fun A9 () Bool)
(assert (let ((.def_0 (* 1 x9))) (let ((.def_1 (< .def_0 1))) (let ((.def_2 (not .def_1))) (let ((.def_3 (* (- 1) x5))) (let ((.def_4 (* (- 1) x2))) (let ((.def_5 (+ .def_4 .def_3))) (let ((.def_6 (< .def_5 1))) (let ((.def_7 (not .def_6))) (let ((.def_8 (or .def_7 .def_2))) (let ((.def_9 (and A8 A9))) (let ((.def_10 (and .def_9 .def_8))) (let ((.def_11 (* (- 1) x1))) (let ((.def_12 (< .def_11 (- 1)))) (let ((.def_13 (and .def_12 A8))) (let ((.def_14 (not .def_13))) (let ((.def_15 (* 1 x8))) (let ((.def_16 (* 1 x2))) (let ((.def_17 (+ .def_16 .def_15))) (let ((.def_18 (< .def_17 1))) (let ((.def_19 (not .def_18))) (let ((.def_20 (* (- 1) x9))) (let ((.def_21 (* 1 x5))) (let ((.def_22 (+ .def_21 .def_20))) (let ((.def_23 (< .def_22 (- 1)))) (let ((.def_24 (not .def_23))) (let ((.def_25 (or .def_24 .def_19))) (let ((.def_26 (and .def_25 .def_14))) (let ((.def_27 (or .def_26 .def_10))) (let ((.def_28 (not .def_27))) (let ((.def_29 (* 1 x6))) (let ((.def_30 (* (- 1) x0))) (let ((.def_31 (+ .def_30 .def_29))) (let ((.def_32 (< .def_31 1))) (let ((.def_33 (< .def_21 1))) (let ((.def_34 (and .def_33 .def_32))) (let ((.def_35 (< .def_4 (- 1)))) (let ((.def_36 (not .def_35))) (let ((.def_37 (= A9 .def_36))) (let ((.def_38 (not .def_37))) (let ((.def_39 (or .def_38 .def_34))) (let ((.def_40 (not .def_39))) (let ((.def_41 (* 1 x3))) (let ((.def_42 (+ .def_4 .def_41))) (let ((.def_43 (< .def_42 1))) (let ((.def_44 (not .def_43))) (let ((.def_45 (* 1 x1))) (let ((.def_46 (+ .def_20 .def_45))) (let ((.def_47 (< .def_46 (- 1)))) (let ((.def_48 (or .def_47 .def_44))) (let ((.def_49 (* 1 x4))) (let ((.def_50 (+ .def_3 .def_49))) (let ((.def_51 (< .def_50 1))) (let ((.def_52 (not .def_51))) (let ((.def_53 (* (- 1) x6))) (let ((.def_54 (+ .def_53 .def_15))) (let ((.def_55 (< .def_54 1))) (let ((.def_56 (or .def_55 .def_52))) (let ((.def_57 (not .def_56))) (let ((.def_58 (and .def_57 .def_48))) (let ((.def_59 (not .def_58))) (let ((.def_60 (and .def_59 .def_40))) (let ((.def_61 (not .def_60))) (let ((.def_62 (and .def_61 .def_28))) (let ((.def_63 (not .def_62))) (let ((.def_64 (< .def_15 1))) (let ((.def_65 (+ .def_20 .def_3))) (let ((.def_66 (< .def_65 1))) (let ((.def_67 (and .def_66 .def_64))) (let ((.def_68 (+ .def_15 .def_45))) (let ((.def_69 (< .def_68 1))) (let ((.def_70 (not .def_69))) (let ((.def_71 (or .def_70 A0))) (let ((.def_72 (not .def_71))) (let ((.def_73 (or .def_72 .def_67))) (let ((.def_74 (not .def_73))) (let ((.def_75 (* 1 x7))) (let ((.def_76 (+ .def_75 .def_30))) (let ((.def_77 (< .def_76 (- 1)))) (let ((.def_78 (and .def_77 A1))) (let ((.def_79 (not .def_78))) (let ((.def_80 (< .def_41 (- 1)))) (let ((.def_81 (not .def_80))) (let ((.def_82 (+ .def_3 .def_4))) (let ((.def_83 (< .def_82 1))) (let ((.def_84 (= .def_83 .def_81))) (let ((.def_85 (not .def_84))) (let ((.def_86 (and .def_85 .def_79))) (let ((.def_87 (not .def_86))) (let ((.def_88 (and .def_87 .def_74))) (let ((.def_89 (not .def_88))) (let ((.def_90 (* 1 x0))) (let ((.def_91 (< .def_90 (- 1)))) (let ((.def_92 (not .def_91))) (let ((.def_93 (or A6 .def_92))) (let ((.def_94 (not .def_93))) (let ((.def_95 (< .def_75 1))) (let ((.def_96 (not .def_95))) (let ((.def_97 (and .def_96 A5))) (let ((.def_98 (not .def_97))) (let ((.def_99 (or .def_98 .def_94))) (let ((.def_100 (not A4))) (let ((.def_101 (< .def_16 (- 1)))) (let ((.def_102 (or .def_101 .def_100))) (let ((.def_103 (not .def_102))) (let ((.def_104 (+ .def_16 .def_41))) (let ((.def_105 (< .def_104 (- 1)))) (let ((.def_106 (= A1 .def_105))) (let ((.def_107 (not .def_106))) (let ((.def_108 (or .def_107 .def_103))) (let ((.def_109 (not .def_108))) (let ((.def_110 (= .def_109 .def_99))) (let ((.def_111 (not .def_110))) (let ((.def_112 (= .def_111 .def_89))) (let ((.def_113 (not .def_112))) (let ((.def_114 (= .def_113 .def_63))) (let ((.def_115 (not .def_114))) (let ((.def_116 (not A8))) (let ((.def_117 (and .def_116 A2))) (let ((.def_118 (not .def_117))) (let ((.def_119 (+ .def_4 .def_11))) (let ((.def_120 (< .def_119 1))) (let ((.def_121 (or .def_81 .def_120))) (let ((.def_122 (not .def_121))) (let ((.def_123 (= .def_122 .def_118))) (let ((.def_124 (+ .def_49 .def_30))) (let ((.def_125 (< .def_124 (- 1)))) (let ((.def_126 (* (- 1) x8))) (let ((.def_127 (+ .def_41 .def_126))) (let ((.def_128 (< .def_127 (- 1)))) (let ((.def_129 (not .def_128))) (let ((.def_130 (and .def_129 .def_125))) (let ((.def_131 (and A1 .def_35))) (let ((.def_132 (not .def_131))) (let ((.def_133 (or .def_132 .def_130))) (let ((.def_134 (not .def_133))) (let ((.def_135 (or .def_134 .def_123))) (let ((.def_136 (not .def_135))) (let ((.def_137 (not A2))) (let ((.def_138 (or .def_137 .def_116))) (let ((.def_139 (not .def_138))) (let ((.def_140 (< .def_90 1))) (let ((.def_141 (or .def_35 .def_140))) (let ((.def_142 (not .def_141))) (let ((.def_143 (and .def_142 .def_139))) (let ((.def_144 (not A3))) (let ((.def_145 (* (- 1) x7))) (let ((.def_146 (+ .def_53 .def_145))) (let ((.def_147 (< .def_146 (- 1)))) (let ((.def_148 (not .def_147))) (let ((.def_149 (and .def_148 .def_144))) (let ((.def_150 (not .def_149))) (let ((.def_151 (* (- 1) x4))) (let ((.def_152 (+ .def_151 .def_75))) (let ((.def_153 (< .def_152 1))) (let ((.def_154 (not .def_153))) (let ((.def_155 (or .def_100 .def_154))) (let ((.def_156 (not .def_155))) (let ((.def_157 (or .def_156 .def_150))) (let ((.def_158 (or .def_157 .def_143))) (let ((.def_159 (or .def_158 .def_136))) (let ((.def_160 (not .def_159))) (let ((.def_161 (< .def_15 (- 1)))) (let ((.def_162 (and .def_161 A0))) (let ((.def_163 (and .def_137 A5))) (let ((.def_164 (not .def_163))) (let ((.def_165 (and .def_164 .def_162))) (let ((.def_166 (< .def_0 (- 1)))) (let ((.def_167 (not A7))) (let ((.def_168 (and .def_167 .def_166))) (let ((.def_169 (not .def_168))) (let ((.def_170 (not A0))) (let ((.def_171 (and A9 .def_170))) (let ((.def_172 (or .def_171 .def_169))) (let ((.def_173 (not .def_172))) (let ((.def_174 (and .def_173 .def_165))) (let ((.def_175 (and .def_167 A2))) (let ((.def_176 (or A9 A1))) (let ((.def_177 (not .def_176))) (let ((.def_178 (and .def_177 .def_175))) (let ((.def_179 (* (- 1) x3))) (let ((.def_180 (+ .def_3 .def_179))) (let ((.def_181 (< .def_180 1))) (let ((.def_182 (+ .def_30 .def_53))) (let ((.def_183 (< .def_182 1))) (let ((.def_184 (not .def_183))) (let ((.def_185 (and .def_184 .def_181))) (let ((.def_186 (not .def_185))) (let ((.def_187 (= A6 .def_116))) (let ((.def_188 (not .def_187))) (let ((.def_189 (and .def_188 .def_186))) (let ((.def_190 (and .def_189 .def_178))) (let ((.def_191 (not .def_190))) (let ((.def_192 (and .def_191 .def_174))) (let ((.def_193 (and .def_192 .def_160))) (let ((.def_194 (or .def_193 .def_115))) (let ((.def_195 (< .def_16 1))) (let ((.def_196 (= .def_12 .def_195))) (let ((.def_197 (not .def_196))) (let ((.def_198 (< .def_49 1))) (let ((.def_199 (or A2 .def_198))) (let ((.def_200 (and .def_199 .def_197))) (let ((.def_201 (not .def_200))) (let ((.def_202 (< .def_126 1))) (let ((.def_203 (= .def_202 A8))) (let ((.def_204 (not A5))) (let ((.def_205 (< .def_45 (- 1)))) (let ((.def_206 (not .def_205))) (let ((.def_207 (and .def_206 .def_204))) (let ((.def_208 (and .def_207 .def_203))) (let ((.def_209 (not .def_208))) (let ((.def_210 (or .def_209 .def_201))) (let ((.def_211 (+ .def_15 .def_151))) (let ((.def_212 (< .def_211 (- 1)))) (let ((.def_213 (not .def_212))) (let ((.def_214 (or A8 .def_213))) (let ((.def_215 (not .def_214))) (let ((.def_216 (and A0 .def_100))) (let ((.def_217 (or .def_216 .def_215))) (let ((.def_218 (= .def_92 A9))) (let ((.def_219 (not .def_218))) (let ((.def_220 (+ .def_179 .def_20))) (let ((.def_221 (< .def_220 (- 1)))) (let ((.def_222 (+ .def_49 .def_3))) (let ((.def_223 (< .def_222 (- 1)))) (let ((.def_224 (not .def_223))) (let ((.def_225 (or .def_224 .def_221))) (let ((.def_226 (and .def_225 .def_219))) (let ((.def_227 (and .def_226 .def_217))) (let ((.def_228 (or .def_227 .def_210))) (let ((.def_229 (or .def_64 .def_91))) (let ((.def_230 (= .def_52 .def_116))) (let ((.def_231 (not .def_230))) (let ((.def_232 (or .def_231 .def_229))) (let ((.def_233 (not .def_232))) (let ((.def_234 (or .def_96 .def_224))) (let ((.def_235 (not .def_234))) (let ((.def_236 (< .def_145 (- 1)))) (let ((.def_237 (< .def_11 1))) (let ((.def_238 (and .def_237 .def_236))) (let ((.def_239 (and .def_238 .def_235))) (let ((.def_240 (and .def_239 .def_233))) (let ((.def_241 (or A0 A6))) (let ((.def_242 (+ .def_16 .def_90))) (let ((.def_243 (< .def_242 (- 1)))) (let ((.def_244 (not .def_243))) (let ((.def_245 (and .def_116 .def_244))) (let ((.def_246 (not .def_245))) (let ((.def_247 (and .def_246 .def_241))) (let ((.def_248 (not .def_247))) (let ((.def_249 (+ .def_49 .def_145))) (let ((.def_250 (< .def_249 (- 1)))) (let ((.def_251 (not .def_250))) (let ((.def_252 (= .def_116 .def_251))) (let ((.def_253 (not .def_252))) (let ((.def_254 (not .def_33))) (let ((.def_255 (or .def_144 .def_254))) (let ((.def_256 (or .def_255 .def_253))) (let ((.def_257 (not .def_256))) (let ((.def_258 (and .def_257 .def_248))) (let ((.def_259 (and .def_258 .def_240))) (let ((.def_260 (not .def_259))) (let ((.def_261 (and .def_260 .def_228))) (let ((.def_262 (+ .def_29 .def_20))) (let ((.def_263 (< .def_262 1))) (let ((.def_264 (not A1))) (let ((.def_265 (and .def_264 .def_263))) (let ((.def_266 (or A7 .def_100))) (let ((.def_267 (not .def_266))) (let ((.def_268 (and .def_267 .def_265))) (let ((.def_269 (not .def_268))) (let ((.def_270 (< .def_126 (- 1)))) (let ((.def_271 (not .def_270))) (let ((.def_272 (+ .def_75 .def_29))) (let ((.def_273 (< .def_272 1))) (let ((.def_274 (and .def_273 .def_271))) (let ((.def_275 (not .def_274))) (let ((.def_276 (+ .def_90 .def_11))) (let ((.def_277 (< .def_276 1))) (let ((.def_278 (not .def_277))) (let ((.def_279 (or .def_137 .def_278))) (let ((.def_280 (not .def_279))) (let ((.def_281 (or .def_280 .def_275))) (let ((.def_282 (= .def_281 .def_269))) (let ((.def_283 (or A3 .def_96))) (let ((.def_284 (not .def_283))) (let ((.def_285 (not .def_140))) (let ((.def_286 (< .def_145 1))) (let ((.def_287 (not .def_286))) (let ((.def_288 (and .def_287 .def_285))) (let ((.def_289 (not .def_288))) (let ((.def_290 (= .def_289 .def_284))) (let ((.def_291 (and .def_116 .def_170))) (let ((.def_292 (not .def_291))) (let ((.def_293 (+ .def_21 .def_15))) (let ((.def_294 (< .def_293 1))) (let ((.def_295 (= .def_294 .def_202))) (let ((.def_296 (not .def_295))) (let ((.def_297 (and .def_296 .def_292))) (let ((.def_298 (not .def_297))) (let ((.def_299 (and .def_298 .def_290))) (let ((.def_300 (or .def_299 .def_282))) (let ((.def_301 (not .def_300))) (let ((.def_302 (or .def_100 .def_12))) (let ((.def_303 (not .def_302))) (let ((.def_304 (< .def_75 (- 1)))) (let ((.def_305 (not .def_304))) (let ((.def_306 (and A6 .def_305))) (let ((.def_307 (or .def_306 .def_303))) (let ((.def_308 (not .def_307))) (let ((.def_309 (< .def_4 1))) (let ((.def_310 (and A8 .def_309))) (let ((.def_311 (not .def_310))) (let ((.def_312 (< .def_30 (- 1)))) (let ((.def_313 (and .def_144 .def_312))) (let ((.def_314 (and .def_313 .def_311))) (let ((.def_315 (not .def_314))) (let ((.def_316 (= .def_315 .def_308))) (let ((.def_317 (+ .def_75 .def_20))) (let ((.def_318 (< .def_317 1))) (let ((.def_319 (not .def_318))) (let ((.def_320 (< .def_151 1))) (let ((.def_321 (or .def_320 .def_319))) (let ((.def_322 (not .def_321))) (let ((.def_323 (< .def_49 (- 1)))) (let ((.def_324 (and .def_323 A1))) (let ((.def_325 (not .def_324))) (let ((.def_326 (or .def_325 .def_322))) (let ((.def_327 (+ .def_49 .def_126))) (let ((.def_328 (< .def_327 1))) (let ((.def_329 (not .def_328))) (let ((.def_330 (not A9))) (let ((.def_331 (or .def_330 .def_329))) (let ((.def_332 (or .def_312 A5))) (let ((.def_333 (and .def_332 .def_331))) (let ((.def_334 (and .def_333 .def_326))) (let ((.def_335 (and .def_334 .def_316))) (let ((.def_336 (not .def_335))) (let ((.def_337 (or .def_336 .def_301))) (let ((.def_338 (and .def_337 .def_261))) (let ((.def_339 (not .def_338))) (let ((.def_340 (and .def_339 .def_194))) (let ((.def_341 (and A6 A7))) (let ((.def_342 (not .def_341))) (let ((.def_343 (and .def_100 .def_33))) (let ((.def_344 (or .def_343 .def_342))) (let ((.def_345 (not .def_344))) (let ((.def_346 (+ .def_126 .def_41))) (let ((.def_347 (< .def_346 (- 1)))) (let ((.def_348 (not .def_347))) (let ((.def_349 (+ .def_53 .def_90))) (let ((.def_350 (< .def_349 1))) (let ((.def_351 (or .def_350 .def_348))) (let ((.def_352 (< .def_45 1))) (let ((.def_353 (not .def_352))) (let ((.def_354 (or .def_353 .def_137))) (let ((.def_355 (or .def_354 .def_351))) (let ((.def_356 (not .def_355))) (let ((.def_357 (and .def_356 .def_345))) (let ((.def_358 (and .def_167 A4))) (let ((.def_359 (not .def_358))) (let ((.def_360 (+ .def_11 .def_30))) (let ((.def_361 (< .def_360 (- 1)))) (let ((.def_362 (not A6))) (let ((.def_363 (= .def_362 .def_361))) (let ((.def_364 (not .def_363))) (let ((.def_365 (and .def_364 .def_359))) (let ((.def_366 (not .def_365))) (let ((.def_367 (+ .def_0 .def_90))) (let ((.def_368 (< .def_367 1))) (let ((.def_369 (or .def_368 .def_92))) (let ((.def_370 (and A8 .def_330))) (let ((.def_371 (not .def_370))) (let ((.def_372 (or .def_371 .def_369))) (let ((.def_373 (and .def_372 .def_366))) (let ((.def_374 (not .def_373))) (let ((.def_375 (or .def_374 .def_357))) (let ((.def_376 (not .def_375))) (let ((.def_377 (< .def_151 (- 1)))) (let ((.def_378 (+ .def_179 .def_16))) (let ((.def_379 (< .def_378 1))) (let ((.def_380 (not .def_379))) (let ((.def_381 (or .def_380 .def_377))) (let ((.def_382 (+ .def_126 .def_30))) (let ((.def_383 (< .def_382 1))) (let ((.def_384 (and A2 .def_383))) (let ((.def_385 (or .def_384 .def_381))) (let ((.def_386 (not .def_385))) (let ((.def_387 (+ .def_30 .def_4))) (let ((.def_388 (< .def_387 (- 1)))) (let ((.def_389 (+ .def_15 .def_179))) (let ((.def_390 (< .def_389 1))) (let ((.def_391 (not .def_390))) (let ((.def_392 (or .def_391 .def_388))) (let ((.def_393 (+ .def_20 .def_126))) (let ((.def_394 (< .def_393 (- 1)))) (let ((.def_395 (not .def_394))) (let ((.def_396 (+ .def_0 .def_29))) (let ((.def_397 (< .def_396 (- 1)))) (let ((.def_398 (not .def_397))) (let ((.def_399 (= .def_398 .def_395))) (let ((.def_400 (and .def_399 .def_392))) (let ((.def_401 (not .def_400))) (let ((.def_402 (and .def_401 .def_386))) (let ((.def_403 (+ .def_151 .def_45))) (let ((.def_404 (< .def_403 1))) (let ((.def_405 (not .def_404))) (let ((.def_406 (and A3 .def_405))) (let ((.def_407 (not .def_406))) (let ((.def_408 (and .def_167 A3))) (let ((.def_409 (or .def_408 .def_407))) (let ((.def_410 (not .def_409))) (let ((.def_411 (and A7 .def_91))) (let ((.def_412 (or A0 A2))) (let ((.def_413 (not .def_412))) (let ((.def_414 (or .def_413 .def_411))) (let ((.def_415 (not .def_414))) (let ((.def_416 (or .def_415 .def_410))) (let ((.def_417 (not .def_416))) (let ((.def_418 (and .def_417 .def_402))) (let ((.def_419 (or .def_418 .def_376))) (let ((.def_420 (not .def_419))) (let ((.def_421 (+ .def_126 .def_151))) (let ((.def_422 (< .def_421 1))) (let ((.def_423 (or .def_422 A5))) (let ((.def_424 (not .def_423))) (let ((.def_425 (+ .def_4 .def_15))) (let ((.def_426 (< .def_425 (- 1)))) (let ((.def_427 (or .def_426 A7))) (let ((.def_428 (and .def_427 .def_424))) (let ((.def_429 (not .def_428))) (let ((.def_430 (< .def_20 (- 1)))) (let ((.def_431 (or .def_430 A1))) (let ((.def_432 (or .def_170 A6))) (let ((.def_433 (not .def_432))) (let ((.def_434 (or .def_433 .def_431))) (let ((.def_435 (or .def_434 .def_429))) (let ((.def_436 (+ .def_20 .def_29))) (let ((.def_437 (< .def_436 (- 1)))) (let ((.def_438 (not .def_437))) (let ((.def_439 (= .def_438 .def_264))) (let ((.def_440 (not .def_430))) (let ((.def_441 (or .def_440 .def_116))) (let ((.def_442 (not .def_441))) (let ((.def_443 (or .def_442 .def_439))) (let ((.def_444 (not .def_443))) (let ((.def_445 (not .def_12))) (let ((.def_446 (and .def_445 .def_116))) (let ((.def_447 (< .def_3 (- 1)))) (let ((.def_448 (not .def_447))) (let ((.def_449 (= .def_448 .def_264))) (let ((.def_450 (or .def_449 .def_446))) (let ((.def_451 (and .def_450 .def_444))) (let ((.def_452 (not .def_451))) (let ((.def_453 (or .def_452 .def_435))) (let ((.def_454 (or .def_204 .def_236))) (let ((.def_455 (not .def_454))) (let ((.def_456 (< .def_41 1))) (let ((.def_457 (or A6 .def_456))) (let ((.def_458 (and .def_457 .def_455))) (let ((.def_459 (not .def_458))) (let ((.def_460 (and .def_80 .def_95))) (let ((.def_461 (not .def_460))) (let ((.def_462 (< .def_30 1))) (let ((.def_463 (= .def_462 .def_312))) (let ((.def_464 (= .def_463 .def_461))) (let ((.def_465 (and .def_464 .def_459))) (let ((.def_466 (not .def_465))) (let ((.def_467 (and .def_144 .def_144))) (let ((.def_468 (+ .def_21 .def_45))) (let ((.def_469 (< .def_468 (- 1)))) (let ((.def_470 (not .def_469))) (let ((.def_471 (or .def_377 .def_470))) (let ((.def_472 (not .def_471))) (let ((.def_473 (or .def_472 .def_467))) (let ((.def_474 (not .def_473))) (let ((.def_475 (= .def_362 .def_204))) (let ((.def_476 (+ .def_29 .def_0))) (let ((.def_477 (< .def_476 1))) (let ((.def_478 (and .def_477 .def_330))) (let ((.def_479 (not .def_478))) (let ((.def_480 (or .def_479 .def_475))) (let ((.def_481 (or .def_480 .def_474))) (let ((.def_482 (or .def_481 .def_466))) (let ((.def_483 (not .def_482))) (let ((.def_484 (or .def_483 .def_453))) (let ((.def_485 (not .def_484))) (let ((.def_486 (or .def_485 .def_420))) (let ((.def_487 (+ .def_151 .def_145))) (let ((.def_488 (< .def_487 1))) (let ((.def_489 (= .def_488 .def_204))) (let ((.def_490 (< .def_425 1))) (let ((.def_491 (not .def_490))) (let ((.def_492 (or A9 .def_491))) (let ((.def_493 (and .def_492 .def_489))) (let ((.def_494 (not .def_493))) (let ((.def_495 (and A7 A2))) (let ((.def_496 (not .def_495))) (let ((.def_497 (and A6 .def_312))) (let ((.def_498 (not .def_497))) (let ((.def_499 (= .def_498 .def_496))) (let ((.def_500 (not .def_499))) (let ((.def_501 (= .def_500 .def_494))) (let ((.def_502 (or A1 .def_170))) (let ((.def_503 (not .def_502))) (let ((.def_504 (not .def_456))) (let ((.def_505 (or .def_504 .def_264))) (let ((.def_506 (not .def_505))) (let ((.def_507 (and .def_506 .def_503))) (let ((.def_508 (and .def_394 .def_286))) (let ((.def_509 (not .def_508))) (let ((.def_510 (or A5 A6))) (let ((.def_511 (or .def_510 .def_509))) (let ((.def_512 (or .def_511 .def_507))) (let ((.def_513 (not .def_512))) (let ((.def_514 (or .def_513 .def_501))) (let ((.def_515 (not .def_514))) (let ((.def_516 (+ .def_16 .def_21))) (let ((.def_517 (< .def_516 (- 1)))) (let ((.def_518 (and .def_320 .def_517))) (let ((.def_519 (and .def_254 A7))) (let ((.def_520 (and .def_519 .def_518))) (let ((.def_521 (not .def_520))) (let ((.def_522 (+ .def_20 .def_16))) (let ((.def_523 (< .def_522 (- 1)))) (let ((.def_524 (and .def_362 .def_523))) (let ((.def_525 (not .def_524))) (let ((.def_526 (and .def_161 .def_116))) (let ((.def_527 (not .def_526))) (let ((.def_528 (and .def_527 .def_525))) (let ((.def_529 (and .def_528 .def_521))) (let ((.def_530 (and A3 .def_170))) (let ((.def_531 (and A7 A3))) (let ((.def_532 (= .def_531 .def_530))) (let ((.def_533 (not .def_462))) (let ((.def_534 (or .def_116 .def_533))) (let ((.def_535 (not .def_534))) (let ((.def_536 (+ .def_126 .def_145))) (let ((.def_537 (< .def_536 1))) (let ((.def_538 (and .def_312 .def_537))) (let ((.def_539 (not .def_538))) (let ((.def_540 (or .def_539 .def_535))) (let ((.def_541 (and .def_540 .def_532))) (let ((.def_542 (and .def_541 .def_529))) (let ((.def_543 (not .def_542))) (let ((.def_544 (and .def_543 .def_515))) (let ((.def_545 (+ .def_145 .def_0))) (let ((.def_546 (< .def_545 (- 1)))) (let ((.def_547 (= .def_546 .def_116))) (let ((.def_548 (not .def_547))) (let ((.def_549 (+ .def_30 .def_0))) (let ((.def_550 (< .def_549 (- 1)))) (let ((.def_551 (not .def_550))) (let ((.def_552 (= .def_551 A6))) (let ((.def_553 (and .def_552 .def_548))) (let ((.def_554 (+ .def_3 .def_30))) (let ((.def_555 (< .def_554 1))) (let ((.def_556 (or .def_204 .def_555))) (let ((.def_557 (not .def_556))) (let ((.def_558 (or .def_330 .def_1))) (let ((.def_559 (or .def_558 .def_557))) (let ((.def_560 (or .def_559 .def_553))) (let ((.def_561 (+ .def_3 .def_53))) (let ((.def_562 (< .def_561 (- 1)))) (let ((.def_563 (and A9 .def_562))) (let ((.def_564 (not .def_563))) (let ((.def_565 (or .def_287 A7))) (let ((.def_566 (= .def_565 .def_564))) (let ((.def_567 (not .def_566))) (let ((.def_568 (or A9 .def_270))) (let ((.def_569 (and A2 .def_144))) (let ((.def_570 (and .def_569 .def_568))) (let ((.def_571 (or .def_570 .def_567))) (let ((.def_572 (and .def_571 .def_560))) (let ((.def_573 (not .def_572))) (let ((.def_574 (+ .def_4 .def_145))) (let ((.def_575 (< .def_574 1))) (let ((.def_576 (+ .def_53 .def_30))) (let ((.def_577 (< .def_576 (- 1)))) (let ((.def_578 (or .def_577 .def_575))) (let ((.def_579 (< .def_29 1))) (let ((.def_580 (= .def_362 .def_579))) (let ((.def_581 (or .def_580 .def_578))) (let ((.def_582 (not .def_581))) (let ((.def_583 (+ .def_126 .def_45))) (let ((.def_584 (< .def_583 (- 1)))) (let ((.def_585 (and .def_584 A3))) (let ((.def_586 (not .def_585))) (let ((.def_587 (+ .def_41 .def_45))) (let ((.def_588 (< .def_587 (- 1)))) (let ((.def_589 (not .def_588))) (let ((.def_590 (or .def_589 A0))) (let ((.def_591 (not .def_590))) (let ((.def_592 (and .def_591 .def_586))) (let ((.def_593 (not .def_592))) (let ((.def_594 (or .def_593 .def_582))) (let ((.def_595 (not .def_594))) (let ((.def_596 (+ .def_41 .def_16))) (let ((.def_597 (< .def_596 1))) (let ((.def_598 (or A5 .def_597))) (let ((.def_599 (and .def_12 .def_264))) (let ((.def_600 (and .def_599 .def_598))) (let ((.def_601 (+ .def_29 .def_151))) (let ((.def_602 (< .def_601 (- 1)))) (let ((.def_603 (not .def_602))) (let ((.def_604 (+ .def_0 .def_16))) (let ((.def_605 (< .def_604 1))) (let ((.def_606 (or .def_605 .def_603))) (let ((.def_607 (or A1 A3))) (let ((.def_608 (not .def_607))) (let ((.def_609 (or .def_608 .def_606))) (let ((.def_610 (or .def_609 .def_600))) (let ((.def_611 (and .def_610 .def_595))) (let ((.def_612 (not .def_611))) (let ((.def_613 (and .def_612 .def_573))) (let ((.def_614 (not .def_613))) (let ((.def_615 (or .def_614 .def_544))) (let ((.def_616 (not .def_615))) (let ((.def_617 (and .def_616 .def_486))) (let ((.def_618 (and .def_617 .def_340))) (let ((.def_619 (not .def_618))) (let ((.def_620 (<= x9 1))) (let ((.def_621 (<= 0 x9))) (let ((.def_622 (<= x8 1))) (let ((.def_623 (<= 0 x8))) (let ((.def_624 (<= x7 1))) (let ((.def_625 (<= 0 x7))) (let ((.def_626 (<= x6 1))) (let ((.def_627 (<= 0 x6))) (let ((.def_628 (<= x5 1))) (let ((.def_629 (<= 0 x5))) (let ((.def_630 (<= x4 1))) (let ((.def_631 (<= 0 x4))) (let ((.def_632 (<= x3 1))) (let ((.def_633 (<= 0 x3))) (let ((.def_634 (<= x2 1))) (let ((.def_635 (<= 0 x2))) (let ((.def_636 (<= x1 1))) (let ((.def_637 (<= 0 x1))) (let ((.def_638 (<= x0 1))) (let ((.def_639 (<= 0 x0))) (let ((.def_640 (and .def_639 .def_638 .def_637 .def_636 .def_635 .def_634 .def_633 .def_632 .def_631 .def_630 .def_629 .def_628 .def_627 .def_626 .def_625 .def_624 .def_623 .def_622 .def_621 .def_620 .def_619))) .def_640))))))))))))))))))))))))))))))))))))))))))))))))))))))))))))))))))))))))))))))))))))))))))))))))))))))))))))))))))))))))))))))))))))))))))))))))))))))))))))))))))))))))))))))))))))))))))))))))))))))))))))))))))))))))))))))))))))))))))))))))))))))))))))))))))))))))))))))))))))))))))))))))))))))))))))))))))))))))))))))))))))))))))))))))))))))))))))))))))))))))))))))))))))))))))))))))))))))))))))))))))))))))))))))))))))))))))))))))))))))))))))))))))))))))))))))))))))))))))))))))))))))))))))))))))))))))))))))))))))))))))))))))))))))))))))))))))))))))))))))))))))))))))))))))))))))))))))))))))))))))))))))))))))))))))))))))))))))))))))))))))
(check-sat)
